NAME : X_26_seed_123_id_1
TYPE : CVRP
DIMENSION : 219
EDGE_WEIGHT_TYPE : EUC_2D
CAPACITY : 3
NODE_COORD_SECTION
1	0	0
2	400	92
3	550	354
4	519	618
5	165	14
6	625	640
7	480	642
8	998	37
9	943	62
10	445	526
11	61	892
12	361	81
13	549	222
14	403	442
15	6	868
16	986	583
17	845	241
18	846	966
19	224	563
20	865	259
21	128	104
22	638	126
23	333	606
24	165	625
25	564	851
26	770	994
27	493	224
28	526	514
29	859	986
30	366	238
31	672	978
32	951	377
33	288	414
34	771	735
35	233	219
36	247	847
37	880	106
38	731	846
39	111	533
40	158	699
41	852	799
42	70	736
43	391	589
44	189	248
45	216	223
46	27	321
47	16	474
48	897	135
49	293	403
50	767	880
51	191	740
52	888	404
53	89	286
54	211	837
55	113	398
56	696	256
57	89	796
58	577	277
59	956	540
60	8	808
61	20	438
62	760	607
63	991	622
64	747	551
65	281	687
66	125	716
67	898	223
68	544	864
69	297	233
70	76	810
71	965	515
72	869	703
73	197	434
74	450	730
75	231	467
76	401	915
77	669	201
78	179	790
79	302	386
80	755	49
81	377	509
82	520	496
83	402	419
84	935	922
85	745	347
86	234	626
87	71	105
88	495	583
89	593	890
90	660	493
91	652	794
92	750	891
93	573	295
94	820	719
95	295	126
96	264	410
97	720	258
98	823	180
99	771	295
100	179	823
101	832	205
102	199	838
103	29	24
104	38	719
105	330	152
106	32	958
107	508	821
108	115	434
109	623	980
110	179	435
111	713	951
112	625	584
113	0	225
114	30	788
115	23	530
116	60	111
117	443	635
118	468	920
119	531	116
120	153	126
121	518	450
122	999	311
123	71	500
124	93	522
125	455	248
126	484	400
127	583	174
128	939	191
129	413	554
130	234	527
131	118	259
132	340	49
133	545	765
134	743	290
135	63	268
136	874	538
137	455	936
138	809	924
139	253	655
140	234	180
141	557	964
142	804	359
143	743	489
144	955	713
145	142	916
146	801	725
147	725	8
148	665	844
149	757	401
150	768	790
151	288	430
152	94	889
153	788	726
154	207	60
155	794	740
156	446	101
157	691	447
158	653	868
159	430	774
160	331	667
161	386	405
162	754	596
163	702	284
164	403	578
165	474	724
166	872	416
167	605	559
168	358	808
169	122	648
170	687	485
171	214	181
172	534	192
173	660	415
174	364	665
175	32	187
176	904	80
177	581	941
178	6	127
179	6	632
180	740	964
181	160	113
182	137	720
183	871	795
184	686	813
185	533	532
186	765	366
187	183	287
188	159	370
189	675	414
190	837	821
191	276	34
192	717	22
193	253	681
194	765	535
195	349	329
196	836	382
197	636	762
198	425	669
199	710	389
200	199	819
201	217	506
202	849	483
203	921	355
204	552	451
205	693	827
206	844	950
207	919	374
208	862	126
209	213	423
210	465	703
211	929	470
212	38	750
213	484	121
214	238	768
215	378	745
216	531	622
217	664	133
218	115	93
219	467	968
DEMAND_SECTION
1	0
2	1
3	1
4	1
5	1
6	1
7	1
8	1
9	1
10	1
11	1
12	1
13	1
14	1
15	1
16	1
17	1
18	1
19	1
20	1
21	1
22	1
23	1
24	1
25	1
26	1
27	1
28	1
29	1
30	1
31	1
32	1
33	1
34	1
35	1
36	1
37	1
38	1
39	1
40	1
41	1
42	1
43	1
44	1
45	1
46	1
47	1
48	1
49	1
50	1
51	1
52	1
53	1
54	1
55	1
56	1
57	1
58	1
59	1
60	1
61	1
62	1
63	1
64	1
65	1
66	1
67	1
68	1
69	1
70	1
71	1
72	1
73	1
74	1
75	1
76	1
77	1
78	1
79	1
80	1
81	1
82	1
83	1
84	1
85	1
86	1
87	1
88	1
89	1
90	1
91	1
92	1
93	1
94	1
95	1
96	1
97	1
98	1
99	1
100	1
101	1
102	1
103	1
104	1
105	1
106	1
107	1
108	1
109	1
110	1
111	1
112	1
113	1
114	1
115	1
116	1
117	1
118	1
119	1
120	1
121	1
122	1
123	1
124	1
125	1
126	1
127	1
128	1
129	1
130	1
131	1
132	1
133	1
134	1
135	1
136	1
137	1
138	1
139	1
140	1
141	1
142	1
143	1
144	1
145	1
146	1
147	1
148	1
149	1
150	1
151	1
152	1
153	1
154	1
155	1
156	1
157	1
158	1
159	1
160	1
161	1
162	1
163	1
164	1
165	1
166	1
167	1
168	1
169	1
170	1
171	1
172	1
173	1
174	1
175	1
176	1
177	1
178	1
179	1
180	1
181	1
182	1
183	1
184	1
185	1
186	1
187	1
188	1
189	1
190	1
191	1
192	1
193	1
194	1
195	1
196	1
197	1
198	1
199	1
200	1
201	1
202	1
203	1
204	1
205	1
206	1
207	1
208	1
209	1
210	1
211	1
212	1
213	1
214	1
215	1
216	1
217	1
218	1
219	1
DEPOT_SECTION
1
-1
EOF
